db/inputs/189901456928063308291954214050215097025.smt2
(set-logic QF_FP)
(declare-const x0 (_ FloatingPoint 11 53))
(declare-const x1 (_ FloatingPoint 11 53))
(declare-const x2 (_ FloatingPoint 11 53))
(declare-const x3 (_ FloatingPoint 11 53))
(declare-const x4 (_ FloatingPoint 11 53))
(declare-const x5 (_ FloatingPoint 11 53))
(declare-const x6 (_ FloatingPoint 11 53))
(assert (fp.geq (fp.add RNE x6 x1) (fp.sub RNE x0 x0)))
(assert (fp.lt (fp.mul RNE x4 x5) (fp.add RNE x3 x3)))
(assert (fp.eq (fp.neg x3) (fp.neg x1)))
(assert (fp.geq (fp.mul RNE x3 x3) (fp.sub RNE x4 x1)))
(assert (fp.eq (fp.neg x5) (fp.sub RNE x5 x5)))
(check-sat)
