db/data/189901456928063308291954214050215097025.z3.out
sat
-------------------
2.883994336
